RT is False
Default write of storage_offers_DA.csv just to have a file (but constraint should be inactive)
Reading model...
...model read.
creating competitive generators file...
...competitive generators recorded.
Loading data...
.. day-ahead data with real-time VRE data read.
Compiling instance...
...instance created.
Creating Offer Mitigation (model will solve as dispatch if TRUE)...
Solving...

Welcome to IBM(R) ILOG(R) CPLEX(R) Interactive Optimizer 12.9.0.0
  with Simplex, Mixed Integer & Barrier Optimizers
5725-A06 5725-A29 5724-Y48 5724-Y49 5724-Y54 5724-Y55 5655-Y21
Copyright IBM Corp. 1988, 2019.  All Rights Reserved.

Type 'help' for a list of available commands.
Type 'help' followed by a command name for more
information on commands.

CPLEX> Logfile 'cplex.log' closed.
Logfile 'C:\Users\llavin\Desktop\test919\logs\tmpkt27ceke.cplex.log' open.
CPLEX> New value for parallel optimization mode: -1
CPLEX> New value for mixed integer optimality gap tolerance: 0.01
CPLEX> New value for integrality tolerance: 1e-09
CPLEX> New value for feasibility tolerance: 0.01
CPLEX> New value for deterministic time limit in ticks: 75000
CPLEX> Problem 'C:\Users\llavin\Desktop\test919\logs\tmpsc0buiv8.pyomo.lp' read.
Read time = 0.06 sec. (3.04 ticks)
CPLEX> Problem name         : C:\Users\llavin\Desktop\test919\logs\tmpsc0buiv8.pyomo.lp
Objective sense      : Minimize
Variables            :   26081  [Nneg: 1,  Box: 21616,  Free: 4464]
Objective nonzeros   :    2496
Linear constraints   :   27515  [Less: 14006,  Greater: 4416,  Equal: 9093]
  Nonzeros           :   89219
  RHS nonzeros       :   12271

Variables            : Min LB: -5000.000        Max UB: 1000000.       
Objective nonzeros   : Min   : 15.73158         Max   : 124.0997       
Linear constraints   :
  Nonzeros           : Min   : 0.8500000        Max   : 3000.000       
  RHS nonzeros       : Min   : 0.5583333        Max   : 5000.000       
CPLEX> CPXPARAM_Parallel                                -1
CPXPARAM_Simplex_Tolerances_Feasibility          0.01
CPXPARAM_DetTimeLimit                            75000
CPXPARAM_MIP_Tolerances_MIPGap                   0.01
CPXPARAM_MIP_Tolerances_Integrality              1.0000000000000001e-09
Parallel mode: opportunistic, using up to 32 threads for concurrent optimization.
Tried aggregator 1 time.
LP Presolve eliminated 21377 rows and 15487 columns.
Aggregator did 746 substitutions.
Reduced LP has 5392 rows, 9848 columns, and 31788 nonzeros.
Presolve time = 0.05 sec. (30.19 ticks)
Symmetry aggregator did 5563 additional substitutions.

Iteration log . . .
Iteration:     1   Dual objective     =             0.000000
Perturbation started.
Iteration:   101   Dual objective     =             0.000000
Iteration:   334   Dual objective     =             1.385816
Iteration:   609   Dual objective     =             1.964253
Iteration:   878   Dual objective     =             2.104183
Iteration:  1077   Dual objective     =             2.217082
Iteration:  1353   Dual objective     =             2.269450
Iteration:  1602   Dual objective     =             2.297430
Iteration:  1831   Dual objective     =          8248.263021
Iteration:  2027   Dual objective     =        248032.380606
Iteration:  2209   Dual objective     =        320013.195214
Iteration:  2400   Dual objective     =        337395.351270
Iteration:  2744   Dual objective     =        338729.265141
Removing perturbation.
Dual superbasis not built.
Using devex.

Primal simplex solved model.


Primal simplex - Optimal:  Objective =  3.3872690165e+05
Solution time =    0.17 sec.  Iterations = 1771 (1059)
Deterministic time = 82.97 ticks  (482.40 ticks/sec)

CPLEX> Solution written to file 'C:\Users\llavin\Desktop\test919\logs\tmpjo6gqrqp.cplex.sol'.
CPLEX> Exporting results... 
...storage offer mitigation file created
Converting model to MPEC...
...converted
NOTE: initial MIP solve with only storage competitive to get feasible solution
Solving...

Welcome to IBM(R) ILOG(R) CPLEX(R) Interactive Optimizer 12.9.0.0
  with Simplex, Mixed Integer & Barrier Optimizers
5725-A06 5725-A29 5724-Y48 5724-Y49 5724-Y54 5724-Y55 5655-Y21
Copyright IBM Corp. 1988, 2019.  All Rights Reserved.

Type 'help' for a list of available commands.
Type 'help' followed by a command name for more
information on commands.

CPLEX> Logfile 'cplex.log' closed.
Logfile 'C:\Users\llavin\Desktop\test919\logs\tmponchmeys.cplex.log' open.
CPLEX> New value for parallel optimization mode: -1
CPLEX> New value for mixed integer optimality gap tolerance: 0.01
CPLEX> New value for integrality tolerance: 1e-09
CPLEX> New value for feasibility tolerance: 0.01
CPLEX> New value for deterministic time limit in ticks: 75000
CPLEX> Problem 'C:\Users\llavin\Desktop\test919\logs\tmpqpehjy9e.pyomo.lp' read.
Read time = 0.25 sec. (14.78 ticks)
CPLEX> Problem name         : C:\Users\llavin\Desktop\test919\logs\tmpqpehjy9e.pyomo.lp
Objective sense      : Maximize
Variables            :   53805  [Nneg: 1,  Box: 22000,  Free: 4464,
                                 Binary: 27340]
Objective nonzeros   :    9029
Linear constraints   :  123205  [Less: 41346,  Greater: 59096,  Equal: 22763]
  Nonzeros           :  291753
  RHS nonzeros       :   67491

Variables            : Min LB: -5000.000        Max UB: 1000000.       
Objective nonzeros   : Min   : 0.5583333        Max   : 2500.000       
Linear constraints   :
  Nonzeros           : Min   : 0.5583333        Max   : 1000000.       
  RHS nonzeros       : Min   : 0.5583333        Max   : 1000000.       
CPLEX> CPXPARAM_Parallel                                -1
CPXPARAM_Simplex_Tolerances_Feasibility          0.01
CPXPARAM_DetTimeLimit                            75000
CPXPARAM_MIP_Tolerances_MIPGap                   0.01
CPXPARAM_MIP_Tolerances_Integrality              1.0000000000000001e-09
Tried aggregator 3 times.
MIP Presolve eliminated 88669 rows and 18993 columns.
MIP Presolve added 3379 rows and 0 columns.
MIP Presolve modified 24852 coefficients.
Aggregator did 12991 substitutions.
Reduced MIP has 24924 rows, 21265 columns, and 71074 nonzeros.
Reduced MIP has 8407 binaries, 0 generals, 0 SOSs, and 0 indicators.
Presolve time = 0.30 sec. (176.30 ticks)
Probing fixed 390 vars, tightened 2833 bounds.
Probing time = 1.20 sec. (883.84 ticks)
Tried aggregator 2 times.
MIP Presolve eliminated 881 rows and 781 columns.
MIP Presolve modified 2213 coefficients.
Aggregator did 29 substitutions.
Reduced MIP has 24014 rows, 20455 columns, and 68439 nonzeros.
Reduced MIP has 8017 binaries, 0 generals, 0 SOSs, and 0 indicators.
Presolve time = 0.11 sec. (69.05 ticks)
Probing time = 0.05 sec. (16.51 ticks)
Clique table members: 6344.
MIP emphasis: balance optimality and feasibility.
MIP search method: dynamic search.
Parallel mode: opportunistic, using up to 32 threads.
Root relaxation solution time = 0.38 sec. (287.39 ticks)

        Nodes                                         Cuts/
   Node  Left     Objective  IInf  Best Integer    Best Bound    ItCnt     Gap

      0     0     3969.5809  1786                   3969.5809     6844         
      0     0     3969.5809   641                   Cuts: 848     7199         
      0     0     3943.5365   525                   Cuts: 570     7444         
      0     0     3943.5365   405                   Cuts: 371     7610         
      0     0     3943.5365   353                   Cuts: 180     7685         
      0     0     3943.5365   310                   Cuts: 128     7732         
      0     0     3943.5365   295                    Cuts: 50     7745         
      0     0     3943.5365   286                    Cuts: 57     7754         
      0     0     3943.5365   278                    Cuts: 38     7762         
      0     0     3943.5365   277                    Cuts: 34     7763         
      0     6    infeasible                         3936.7933     8079         
Elapsed time = 9.45 sec. (5651.38 ticks, tree = 0.02 MB, solutions = 0)
    498    53     1790.1343     2                   3914.1735     9469         
    896   473     1588.7671     5                   3914.1735    18573         
*  1126   549      integral     0    -3663.8921     3914.1735    22403  206.83%
   1482   748      982.6113     5    -3553.9253     3914.1735    30525  210.14%
   1912   489    infeasible          -3553.9253     3914.1735    34693  210.14%
   2433   712     3856.2179     1    -3553.9253     3914.1735    38384  210.14%
   2815   650        cutoff          -3553.9253     3914.1735    38102  210.14%
   3186   853     3616.5740     2    -3553.9253     3914.1735    39289  210.14%
   3487   965     3857.9633     1    -3553.9253     3914.1735    40279  210.14%
   4326  1505     3862.7542     1    -1517.7119     3914.1735    42645  357.90%
Elapsed time = 21.91 sec. (8651.01 ticks, tree = 20.08 MB, solutions = 3)
   4835  1723     2746.5610     1    -1517.7119     3914.1735    43653  357.90%
   5160  1847     3912.3776     1    -1517.7119     3914.1735    44108  357.90%
   5433  1952        cutoff          -1517.7119     3914.1735    44610  357.90%
   5672  2042        cutoff          -1517.7119     3914.1735    45106  357.90%
   5873  2039     2746.5610     1    -1517.7119     3914.1735    45073  357.90%
   6077  2055        cutoff          -1517.7119     3914.1735    45167  357.90%
   6233  2077     2746.5610     1    -1517.7119     3914.1735    45279  357.90%
   6384  2104        cutoff          -1517.7119     3914.1735    45458  357.90%
   6513  2150     2746.5610     1    -1517.7119     3914.1735    45693  357.90%
   6658  2121     3384.6865     1    -1517.7119     3914.1735    45528  357.90%
Elapsed time = 37.08 sec. (18225.64 ticks, tree = 33.20 MB, solutions = 3)
   6826  2123     3384.6865     1    -1517.7119     3914.1735    45537  357.90%
   6971  2140     2923.6174     1    -1517.7119     3914.1735    45634  357.90%
   7131  2210        cutoff          -1517.7119     3914.1735    46003  357.90%
   7278  2278     2746.5610     1    -1517.7119     3914.1735    46402  357.90%
   7415  2248     2746.5610     1    -1517.7119     3914.1735    46227  357.90%
   7551  2261        cutoff          -1517.7119     3914.1735    46330  357.90%
   7673  2235     3384.6865     1    -1517.7119     3914.1735    46159  357.90%
   7802  2316        cutoff          -1517.7119     3914.1735    46740  357.90%
   7921  2308        cutoff          -1517.7119     3914.1735    46687  357.90%
   8019  2308        cutoff          -1517.7119     3914.1735    46689  357.90%
Elapsed time = 46.38 sec. (27819.25 ticks, tree = 36.04 MB, solutions = 3)
   8107  2320     3912.3776     1    -1517.7119     3914.1735    46751  357.90%
   8175  2299     2746.5610     1    -1517.7119     3914.1735    46644  357.90%
   8244  2299     2746.5610     1    -1517.7119     3914.1735    46645  357.90%
   8277  2310     2746.5610     1    -1517.7119     3914.1735    46705  357.90%
   8300  2329     3901.7489     2    -1517.7119     3914.1735    46817  357.90%
   8309  2332     3899.2601     1    -1517.7119     3914.1735    46825  357.90%
   8310  2441        cutoff          -1517.7119     3914.1735    54061  357.90%
*  8312  1149      integral     0      -67.9841     3914.1735    54130     --- 
*  8405    36      integral     0     3941.1158     3914.1735    54156   -0.68%

Cover cuts applied:  7
Flow cuts applied:  11
Mixed integer rounding cuts applied:  1
Zero-half cuts applied:  2
Gomory fractional cuts applied:  5

Root node processing (before b&c):
  Real time             =    8.67 sec. (5648.74 ticks)
Parallel b&c, 32 threads:
  Real time             =   46.73 sec. (31224.94 ticks)
  Sync time (average)   =    0.95 sec.
  Wait time (average)   =    0.17 sec.
                          ------------
Total (root+branch&cut) =   55.41 sec. (36873.67 ticks)

Solution pool: 10 solutions saved.

MIP - Integer optimal solution:  Objective =  3.9411158435e+03
Solution time =   55.44 sec.  Iterations = 54300  Nodes = 8410
Deterministic time = 36873.83 ticks  (665.15 ticks/sec)

CPLEX> Incumbent solution written to file 'C:\Users\llavin\Desktop\test919\logs\tmpmz8s68__.cplex.sol'.
CPLEX> NOTE: no warmstart specified for MIP iteration, default behavior is true
NOTE: resolving with all competitive generators using storage-only solution to warmstart
Solving...

Welcome to IBM(R) ILOG(R) CPLEX(R) Interactive Optimizer 12.9.0.0
  with Simplex, Mixed Integer & Barrier Optimizers
5725-A06 5725-A29 5724-Y48 5724-Y49 5724-Y54 5724-Y55 5655-Y21
Copyright IBM Corp. 1988, 2019.  All Rights Reserved.

Type 'help' for a list of available commands.
Type 'help' followed by a command name for more
information on commands.

CPLEX> Logfile 'cplex.log' closed.
Logfile 'C:\Users\llavin\Desktop\test919\logs\tmph6s6dp8u.cplex.log' open.
CPLEX> New value for parallel optimization mode: -1
CPLEX> New value for mixed integer optimality gap tolerance: 0.01
CPLEX> New value for integrality tolerance: 1e-09
CPLEX> New value for feasibility tolerance: 0.01
CPLEX> New value for deterministic time limit in ticks: 75000
CPLEX> Problem 'C:\Users\llavin\Desktop\test919\logs\tmps9jth3n2.pyomo.lp' read.
Read time = 0.23 sec. (14.81 ticks)
CPLEX> MIP start file 'C:\Users\llavin\Desktop\test919\logs\tmph9y584p8.cplex.mst' read.
CPLEX> Problem name         : C:\Users\llavin\Desktop\test919\logs\tmps9jth3n2.pyomo.lp
Objective sense      : Maximize
Variables            :   54525  [Nneg: 1,  Box: 22720,  Free: 4464,
                                 Binary: 27340]
Objective nonzeros   :    9725
Linear constraints   :  123205  [Less: 41346,  Greater: 59096,  Equal: 22763]
  Nonzeros           :  291753
  RHS nonzeros       :   67491

Variables            : Min LB: -5000.000        Max UB: 1000000.       
Objective nonzeros   : Min   : 0.5583333        Max   : 2500.000       
Linear constraints   :
  Nonzeros           : Min   : 0.5583333        Max   : 1000000.       
  RHS nonzeros       : Min   : 0.5583333        Max   : 1000000.       
CPLEX> CPXPARAM_Parallel                                -1
CPXPARAM_Simplex_Tolerances_Feasibility          0.01
CPXPARAM_DetTimeLimit                            75000
CPXPARAM_MIP_Tolerances_MIPGap                   0.01
CPXPARAM_MIP_Tolerances_Integrality              1.0000000000000001e-09
Warning:  No solution found from 1 MIP starts.
Retaining values of one MIP start for possible repair.
Tried aggregator 3 times.
MIP Presolve eliminated 88669 rows and 19713 columns.
MIP Presolve added 3379 rows and 0 columns.
MIP Presolve modified 24852 coefficients.
Aggregator did 12991 substitutions.
Reduced MIP has 24924 rows, 21265 columns, and 71074 nonzeros.
Reduced MIP has 8407 binaries, 0 generals, 0 SOSs, and 0 indicators.
Presolve time = 0.30 sec. (176.67 ticks)
Probing fixed 390 vars, tightened 2833 bounds.
Probing time = 1.19 sec. (883.84 ticks)
Tried aggregator 2 times.
MIP Presolve eliminated 881 rows and 781 columns.
MIP Presolve modified 2213 coefficients.
Aggregator did 29 substitutions.
Reduced MIP has 24014 rows, 20455 columns, and 68439 nonzeros.
Reduced MIP has 8017 binaries, 0 generals, 0 SOSs, and 0 indicators.
Presolve time = 0.11 sec. (69.04 ticks)
Probing time = 0.03 sec. (16.51 ticks)
Clique table members: 6344.
MIP emphasis: balance optimality and feasibility.
MIP search method: dynamic search.
Parallel mode: opportunistic, using up to 32 threads.
Root relaxation solution time = 0.38 sec. (295.25 ticks)

        Nodes                                         Cuts/
   Node  Left     Objective  IInf  Best Integer    Best Bound    ItCnt     Gap

      0     0    84683.4427  1878                  84683.4427     7034         
      0     0    84470.2874   662                   Cuts: 821     7442         
      0     0    84388.6233   534                   Cuts: 552     7648         
      0     0    84363.0805   425                   Cuts: 357     7798         
      0     0    84360.4417   375                   Cuts: 148     7895         
      0     0    84360.4417   358                    Cuts: 88     7924         
      0     0    84360.4417   347                    Cuts: 51     7936         
      0     0    84301.7090   339                    Cuts: 31     7946         
      0     0    84290.8916   336                    Cuts: 32     7953         
      0     0    84288.0219   334                    Cuts: 26     7959         
      0     0    84285.2437   333                    Cuts: 23     7962         
Repair heuristic found nothing.
      0     4    77340.9614    79                     Cuts: 4     8021         
Elapsed time = 12.45 sec. (7379.66 ticks, tree = 0.02 MB, solutions = 0)
    480   194    68959.8713    43                  84087.2921     9853         
*   743+  207                        82097.2255    84087.2921             2.42%
   1224   204    82157.5604    45    82097.2255    84087.2921    22342    2.42%
   1908   450    83837.7846    19    82097.2255    84087.2921    28750    2.42%
   2849  1056    83140.7830    40    83090.8901    84087.2921    31558    1.20%
   3803  1028    83971.7440    42    83090.8901    84087.2921    32778    1.20%
   4677  1763    83781.4814    16    83090.8901    84087.2921    36846    1.20%
   5365  2289    83918.6654    31    83090.8901    84087.2921    39235    1.20%
   6106  2727    83622.5561     9    83090.8901    84087.2921    41808    1.20%
   8108  4357    83236.8616     2    83090.8901    84086.6543    50507    1.20%
Elapsed time = 27.45 sec. (10364.17 ticks, tree = 34.71 MB, solutions = 3)
   8223  4727        cutoff          83090.8901    84082.5210    60510    1.19%
   8266    14    83880.6896   132    83090.8901    83968.9014    60662    1.06%

GUB cover cuts applied:  3
Clique cuts applied:  9
Cover cuts applied:  9
Implied bound cuts applied:  8
Flow cuts applied:  231
Mixed integer rounding cuts applied:  56
Zero-half cuts applied:  1
Gomory fractional cuts applied:  57

Root node processing (before b&c):
  Real time             =   10.95 sec. (7357.68 ticks)
Parallel b&c, 32 threads:
  Real time             =   26.55 sec. (8739.03 ticks)
  Sync time (average)   =    3.23 sec.
  Wait time (average)   =    0.24 sec.
                          ------------
Total (root+branch&cut) =   37.50 sec. (16096.71 ticks)

Solution pool: 3 solutions saved.

MIP - Integer optimal, tolerance (0.01/1e-06):  Objective =  8.3090890059e+04
Current MIP best bound =  8.3882764006e+04 (gap = 791.874, 0.95%)
Solution time =   37.52 sec.  Iterations = 60884  Nodes = 8267 (34)
Deterministic time = 16096.87 ticks  (429.07 ticks/sec)

CPLEX> Incumbent solution written to file 'C:\Users\llavin\Desktop\test919\logs\tmp3qc42ktk.cplex.sol'.
CPLEX> Exporting results... 
